Gurobi Optimizer version 9.1.2 build v9.1.2rc0 (linux64)
Thread count: 36 physical cores, 72 logical processors, using up to 32 threads
Optimize a model with 12 rows, 57 columns and 590 nonzeros
Model fingerprint: 0xf32eec78
Model has 47 quadratic constraints
Coefficient statistics:
  Matrix range     [2e-05, 3e+00]
  QMatrix range    [1e+00, 1e+00]
  QLMatrix range   [1e+00, 1e+00]
  Objective range  [8e-03, 7e-01]
  Bounds range     [1e+00, 1e+00]
  RHS range        [1e+00, 1e+00]
Presolve removed 9 rows and 0 columns

Continuous model is non-convex -- solving as a MIP.

Presolve removed 9 rows and 0 columns
Presolve time: 0.00s
Presolved: 189 rows, 57 columns, 443 nonzeros
Presolved model has 47 bilinear constraint(s)
Variable types: 57 continuous, 0 integer (0 binary)

Root relaxation: objective -1.743721e+00, 44 iterations, 0.00 seconds

    Nodes    |    Current Node    |     Objective Bounds      |     Work
 Expl Unexpl |  Obj  Depth IntInf | Incumbent    BestBd   Gap | It/Node Time

     0     0   -1.74372    0   38          -   -1.74372      -     -    0s
H    0     0                       0.6147548   -1.74372   384%     -    0s
     0     0   -1.64739    0    1    0.61475   -1.64739   368%     -    0s
H    0     0                      -1.6450460   -1.64739  0.14%     -    0s
     0     0     cutoff    0        -1.64505   -1.64505  0.00%     -    0s

Cutting planes:
  RLT: 25
  BQP: 3

Explored 1 nodes (76 simplex iterations) in 0.01 seconds
Thread count was 32 (of 72 available processors)

Solution count 2: -1.64505 0.614755 
No other solutions better than -1.64505

Optimal solution found (tolerance 1.00e-04)
Best objective -1.645045978473e+00, best bound -1.645045978473e+00, gap 0.0000%

User-callback calls 78, time in user-callback 0.00 sec
Gurobi Optimizer version 9.1.2 build v9.1.2rc0 (linux64)
Thread count: 36 physical cores, 72 logical processors, using up to 32 threads
Optimize a model with 60 rows, 312 columns and 16100 nonzeros
Model fingerprint: 0x4c1aaf31
Model has 262 quadratic constraints
Coefficient statistics:
  Matrix range     [4e-07, 7e+00]
  QMatrix range    [1e+00, 1e+00]
  QLMatrix range   [1e+00, 1e+00]
  Objective range  [3e-03, 1e+00]
  Bounds range     [1e+00, 1e+00]
  RHS range        [1e+00, 1e+00]
Presolve removed 15 rows and 0 columns

Continuous model is non-convex -- solving as a MIP.

Presolve removed 15 rows and 0 columns
Presolve time: 0.01s
Presolved: 1081 rows, 312 columns, 13448 nonzeros
Presolved model has 262 bilinear constraint(s)
Variable types: 312 continuous, 0 integer (0 binary)

Root relaxation: objective -1.831254e+01, 295 iterations, 0.01 seconds

    Nodes    |    Current Node    |     Objective Bounds      |     Work
 Expl Unexpl |  Obj  Depth IntInf | Incumbent    BestBd   Gap | It/Node Time

     0     0  -18.31254    0  197          -  -18.31254      -     -    0s
     0     0  -17.62756    0   68          -  -17.62756      -     -    0s
     0     0  -17.60142    0   65          -  -17.60142      -     -    0s
     0     0  -17.53990    0   57          -  -17.53990      -     -    0s
     0     0  -17.53909    0   62          -  -17.53909      -     -    0s
     0     0  -17.52267    0   63          -  -17.52267      -     -    0s
     0     0  -17.52083    0   62          -  -17.52083      -     -    0s
     0     0  -17.51247    0   62          -  -17.51247      -     -    0s
     0     0  -17.50950    0   62          -  -17.50950      -     -    0s
     0     0  -17.50897    0   62          -  -17.50897      -     -    0s
     0     0  -17.50871    0   68          -  -17.50871      -     -    0s
     0     0  -17.50859    0   68          -  -17.50859      -     -    0s
     0     2  -17.50859    0   68          -  -17.50859      -     -    0s
* 2581  1990              53     -16.7518495  -17.20188  2.69%  38.0    1s
* 2684  1990              52     -16.9958927  -17.20188  1.21%  37.2    1s
* 2686  1990              53     -16.9958932  -17.20188  1.21%  37.2    1s
* 3022  1790              60     -17.0226223  -17.16805  0.85%  36.9    1s
* 3114  1814              60     -17.0226492  -17.16805  0.85%  37.0    1s
* 3234  1838              62     -17.0358103  -17.16805  0.78%  37.0    2s
* 4605   543              62     -17.0367298  -17.16805  0.77%  37.1    3s
* 5052   685              75     -17.0370388  -17.16805  0.77%  35.4    3s
* 5053   685              75     -17.0370393  -17.16805  0.77%  35.4    3s
* 5055   685              75     -17.0370395  -17.16805  0.77%  35.4    3s
* 5056   685              75     -17.0370395  -17.16805  0.77%  35.4    3s
* 5275   847              65     -17.0372670  -17.16805  0.77%  34.6    3s
* 5329   847              71     -17.0891678  -17.16805  0.46%  34.4    3s
* 5645   921              68     -17.1012490  -17.16805  0.39%  33.4    3s
* 5651   921              71     -17.1013867  -17.16805  0.39%  33.4    3s
* 6395  1084              59     -17.1016330  -17.16805  0.39%  31.2    3s
* 6554  1128              58     -17.1016495  -17.16805  0.39%  30.7    3s
* 6788  1174              60     -17.1019446  -17.16805  0.39%  30.0    3s
* 6789  1174              60     -17.1019447  -17.16805  0.39%  30.0    3s
* 6944  1227              65     -17.1060151  -17.16142  0.32%  29.6    3s
* 9292   460              60     -17.1060300  -17.10998  0.02%  24.4    4s
* 9384   460              63     -17.1060517  -17.10998  0.02%  24.2    4s
* 9519   460              59     -17.1060680  -17.10998  0.02%  23.9    4s
* 9655   424              62     -17.1060921  -17.10998  0.02%  23.6    4s
* 9743   424              67     -17.1061227  -17.10998  0.02%  23.4    4s
* 9744   424              67     -17.1061227  -17.10998  0.02%  23.4    4s
* 9921   362              60     -17.1061701  -17.10716  0.01%  23.1    4s
* 9926   362              62     -17.1061864  -17.10716  0.01%  23.1    4s
* 9927   362              62     -17.1061870  -17.10716  0.01%  23.1    4s
* 9985   362              62     -17.1061917  -17.10716  0.01%  22.9    4s
* 9986   362              61     -17.1061962  -17.10716  0.01%  22.9    4s

Explored 10301 nodes (230936 simplex iterations) in 4.57 seconds
Thread count was 32 (of 72 available processors)

Solution count 10: -17.1062 -17.1062 -17.1062 ... -17.106

Optimal solution found (tolerance 1.00e-04)
Best objective -1.710619621542e+01, best bound -1.710715960595e+01, gap 0.0056%

User-callback calls 21359, time in user-callback 0.01 sec



objective value: -17.10619621542289
objective bound: -17.107159605946435
x_opt: [1.0, 1.0, 0.0, 0.3621860595287566, 0.0, 0.0, 1.0, 0.0, 0.0, 0.0, 1.0, 0.0, 1.0, 1.0, 0.11105156931023435, 1.0, 0.0, 1.0, 0.0, 0.0, 1.0, 0.6951372701251262, 0.0, 0.8251126573293107, 0.0, 0.8372644568325525, 0.0, 1.0, 0.0, 0.0, 0.9902537741635362, 0.8839980937370835, 0.0, 0.36530982605682366, 1.0, 1.0, 0.05662396205695785, 1.0, 0.0, 0.8098424861885729, 1.0, 0.0, 1.0, 0.0, 0.0, 0.09311731563191791, 0.9252729169283289, 0.0, 1.0, 0.17395137044506045]
GUROBI solution time: 4.56638503074646




